language Essence 1.3

letting colouring be
        function((0, 0) --> red, (0, 1) --> blue, (0, 2) --> red, (0, 3) --> blue, (0, 4) --> red, (1, 0) --> blue,
                 (1, 1) --> red, (1, 2) --> red, (1, 3) --> red, (1, 4) --> blue, (2, 0) --> red, (2, 1) --> red,
                 (2, 2) --> red, (2, 3) --> blue, (2, 4) --> blue, (3, 0) --> blue, (3, 1) --> red, (3, 2) --> blue,
                 (3, 3) --> red, (3, 4) --> red, (4, 0) --> red, (4, 1) --> blue, (4, 2) --> blue, (4, 3) --> red,
                 (4, 4) --> red)
